NAME : 10_3_3_3_(31).dat
COMMENT : Henke, Speranza, Wäscher, 2015
TYPE : MCVRP
DIMENSION : 11
EDGE_WEIGHT_TYPE : DISTANCE_MATRIX
CAPACITY : 1000
VEHICLES : 3
PRODUCT TYPES : 3
COMPARTMENTS : 3
NODE_COORD_SECTION
1 50 50
2 5.56 31.64
3 16.36 26
4 13.35 32.54
5 26.24 12.93
6 93.2 98.09
7 10.02 94.91
8 63.8 4.19
9 90.83 67.31
10 57.59 17.04
11 83.51 27.9
DEMAND_SECTION
1 0 0 0
2 105 18 47
3 31 37 42
4 24 158 47
5 61 14 44
6 39 8 39
7 121 10 4
8 163 66 25
9 32 24 22
10 110 55 33
11 134 103 25
DEPOT_SECTION
1
EOF